c FILE: 1-FullIns_5.col

c SOURCE: M. Caramia (caramia@iac.rm.cnr.it) and P. Dell'Olmo (paolo.dellolmo@uniroma1.it)

c DESCRIPTION: 1-FullIns graph of order 5

p edge 282 3247
e 1 2
e 1 4
e 1 11
e 1 13
e 1 32
e 1 34
e 1 41
e 1 43
e 1 95
e 1 97
e 1 104
e 1 106
e 1 125
e 1 127
e 1 134
e 1 136
e 2 3
e 2 10
e 2 12
e 2 31
e 2 33
e 2 40
e 2 42
e 2 94
e 2 96
e 2 103
e 2 105
e 2 124
e 2 126
e 2 133
e 2 135
e 3 6
e 3 8
e 3 11
e 3 15
e 3 17
e 3 32
e 3 36
e 3 38
e 3 41
e 3 45
e 3 47
e 3 95
e 3 99
e 3 101
e 3 104
e 3 108
e 3 110
e 3 125
e 3 129
e 3 131
e 3 134
e 3 138
e 3 140
e 4 5
e 4 8
e 4 10
e 4 14
e 4 17
e 4 31
e 4 35
e 4 38
e 4 40
e 4 44
e 4 47
e 4 94
e 4 98
e 4 101
e 4 103
e 4 107
e 4 110
e 4 124
e 4 128
e 4 131
e 4 133
e 4 137
e 4 140
e 5 7
e 5 9
e 5 13
e 5 16
e 5 18
e 5 34
e 5 37
e 5 39
e 5 43
e 5 46
e 5 48
e 5 97
e 5 100
e 5 102
e 5 106
e 5 109
e 5 111
e 5 127
e 5 130
e 5 132
e 5 136
e 5 139
e 5 141
e 6 7
e 6 9
e 6 12
e 6 16
e 6 18
e 6 33
e 6 37
e 6 39
e 6 42
e 6 46
e 6 48
e 6 96
e 6 100
e 6 102
e 6 105
e 6 109
e 6 111
e 6 126
e 6 130
e 6 132
e 6 135
e 6 139
e 6 141
e 7 8
e 7 9
e 7 14
e 7 15
e 7 17
e 7 18
e 7 35
e 7 36
e 7 38
e 7 39
e 7 44
e 7 45
e 7 47
e 7 48
e 7 98
e 7 99
e 7 101
e 7 102
e 7 107
e 7 108
e 7 110
e 7 111
e 7 128
e 7 129
e 7 131
e 7 132
e 7 137
e 7 138
e 7 140
e 7 141
e 8 9
e 8 12
e 8 13
e 8 16
e 8 18
e 8 33
e 8 34
e 8 37
e 8 39
e 8 42
e 8 43
e 8 46
e 8 48
e 8 96
e 8 97
e 8 100
e 8 102
e 8 105
e 8 106
e 8 109
e 8 111
e 8 126
e 8 127
e 8 130
e 8 132
e 8 135
e 8 136
e 8 139
e 8 141
e 9 14
e 9 15
e 9 16
e 9 17
e 9 35
e 9 36
e 9 37
e 9 38
e 9 44
e 9 45
e 9 46
e 9 47
e 9 98
e 9 99
e 9 100
e 9 101
e 9 107
e 9 108
e 9 109
e 9 110
e 9 128
e 9 129
e 9 130
e 9 131
e 9 137
e 9 138
e 9 139
e 9 140
e 10 20
e 10 22
e 10 29
e 10 32
e 10 34
e 10 50
e 10 52
e 10 59
e 10 95
e 10 97
e 10 113
e 10 115
e 10 122
e 10 125
e 10 127
e 10 143
e 10 145
e 10 152
e 11 19
e 11 21
e 11 29
e 11 31
e 11 33
e 11 49
e 11 51
e 11 59
e 11 94
e 11 96
e 11 112
e 11 114
e 11 122
e 11 124
e 11 126
e 11 142
e 11 144
e 11 152
e 12 20
e 12 24
e 12 26
e 12 29
e 12 32
e 12 36
e 12 38
e 12 50
e 12 54
e 12 56
e 12 59
e 12 95
e 12 99
e 12 101
e 12 113
e 12 117
e 12 119
e 12 122
e 12 125
e 12 129
e 12 131
e 12 143
e 12 147
e 12 149
e 12 152
e 13 19
e 13 23
e 13 26
e 13 29
e 13 31
e 13 35
e 13 38
e 13 49
e 13 53
e 13 56
e 13 59
e 13 94
e 13 98
e 13 101
e 13 112
e 13 116
e 13 119
e 13 122
e 13 124
e 13 128
e 13 131
e 13 142
e 13 146
e 13 149
e 13 152
e 14 22
e 14 25
e 14 27
e 14 29
e 14 34
e 14 37
e 14 39
e 14 52
e 14 55
e 14 57
e 14 59
e 14 97
e 14 100
e 14 102
e 14 115
e 14 118
e 14 120
e 14 122
e 14 127
e 14 130
e 14 132
e 14 145
e 14 148
e 14 150
e 14 152
e 15 21
e 15 25
e 15 27
e 15 29
e 15 33
e 15 37
e 15 39
e 15 51
e 15 55
e 15 57
e 15 59
e 15 96
e 15 100
e 15 102
e 15 114
e 15 118
e 15 120
e 15 122
e 15 126
e 15 130
e 15 132
e 15 144
e 15 148
e 15 150
e 15 152
e 16 23
e 16 24
e 16 26
e 16 27
e 16 29
e 16 35
e 16 36
e 16 38
e 16 39
e 16 53
e 16 54
e 16 56
e 16 57
e 16 59
e 16 98
e 16 99
e 16 101
e 16 102
e 16 116
e 16 117
e 16 119
e 16 120
e 16 122
e 16 128
e 16 129
e 16 131
e 16 132
e 16 146
e 16 147
e 16 149
e 16 150
e 16 152
e 17 21
e 17 22
e 17 25
e 17 27
e 17 29
e 17 33
e 17 34
e 17 37
e 17 39
e 17 51
e 17 52
e 17 55
e 17 57
e 17 59
e 17 96
e 17 97
e 17 100
e 17 102
e 17 114
e 17 115
e 17 118
e 17 120
e 17 122
e 17 126
e 17 127
e 17 130
e 17 132
e 17 144
e 17 145
e 17 148
e 17 150
e 17 152
e 18 23
e 18 24
e 18 25
e 18 26
e 18 29
e 18 35
e 18 36
e 18 37
e 18 38
e 18 53
e 18 54
e 18 55
e 18 56
e 18 59
e 18 98
e 18 99
e 18 100
e 18 101
e 18 116
e 18 117
e 18 118
e 18 119
e 18 122
e 18 128
e 18 129
e 18 130
e 18 131
e 18 146
e 18 147
e 18 148
e 18 149
e 18 152
e 19 28
e 19 30
e 19 41
e 19 43
e 19 58
e 19 60
e 19 104
e 19 106
e 19 121
e 19 123
e 19 134
e 19 136
e 19 151
e 19 153
e 20 28
e 20 30
e 20 40
e 20 42
e 20 58
e 20 60
e 20 103
e 20 105
e 20 121
e 20 123
e 20 133
e 20 135
e 20 151
e 20 153
e 21 28
e 21 30
e 21 41
e 21 45
e 21 47
e 21 58
e 21 60
e 21 104
e 21 108
e 21 110
e 21 121
e 21 123
e 21 134
e 21 138
e 21 140
e 21 151
e 21 153
e 22 28
e 22 30
e 22 40
e 22 44
e 22 47
e 22 58
e 22 60
e 22 103
e 22 107
e 22 110
e 22 121
e 22 123
e 22 133
e 22 137
e 22 140
e 22 151
e 22 153
e 23 28
e 23 30
e 23 43
e 23 46
e 23 48
e 23 58
e 23 60
e 23 106
e 23 109
e 23 111
e 23 121
e 23 123
e 23 136
e 23 139
e 23 141
e 23 151
e 23 153
e 24 28
e 24 30
e 24 42
e 24 46
e 24 48
e 24 58
e 24 60
e 24 105
e 24 109
e 24 111
e 24 121
e 24 123
e 24 135
e 24 139
e 24 141
e 24 151
e 24 153
e 25 28
e 25 30
e 25 44
e 25 45
e 25 47
e 25 48
e 25 58
e 25 60
e 25 107
e 25 108
e 25 110
e 25 111
e 25 121
e 25 123
e 25 137
e 25 138
e 25 140
e 25 141
e 25 151
e 25 153
e 26 28
e 26 30
e 26 42
e 26 43
e 26 46
e 26 48
e 26 58
e 26 60
e 26 105
e 26 106
e 26 109
e 26 111
e 26 121
e 26 123
e 26 135
e 26 136
e 26 139
e 26 141
e 26 151
e 26 153
e 27 28
e 27 30
e 27 44
e 27 45
e 27 46
e 27 47
e 27 58
e 27 60
e 27 107
e 27 108
e 27 109
e 27 110
e 27 121
e 27 123
e 27 137
e 27 138
e 27 139
e 27 140
e 27 151
e 27 153
e 28 29
e 28 30
e 28 49
e 28 50
e 28 51
e 28 52
e 28 53
e 28 54
e 28 55
e 28 56
e 28 57
e 28 59
e 28 60
e 28 112
e 28 113
e 28 114
e 28 115
e 28 116
e 28 117
e 28 118
e 28 119
e 28 120
e 28 122
e 28 123
e 28 142
e 28 143
e 28 144
e 28 145
e 28 146
e 28 147
e 28 148
e 28 149
e 28 150
e 28 152
e 28 153
e 29 30
e 29 40
e 29 41
e 29 42
e 29 43
e 29 44
e 29 45
e 29 46
e 29 47
e 29 48
e 29 58
e 29 60
e 29 103
e 29 104
e 29 105
e 29 106
e 29 107
e 29 108
e 29 109
e 29 110
e 29 111
e 29 121
e 29 123
e 29 133
e 29 134
e 29 135
e 29 136
e 29 137
e 29 138
e 29 139
e 29 140
e 29 141
e 29 151
e 29 153
e 30 49
e 30 50
e 30 51
e 30 52
e 30 53
e 30 54
e 30 55
e 30 56
e 30 57
e 30 58
e 30 59
e 30 112
e 30 113
e 30 114
e 30 115
e 30 116
e 30 117
e 30 118
e 30 119
e 30 120
e 30 121
e 30 122
e 30 142
e 30 143
e 30 144
e 30 145
e 30 146
e 30 147
e 30 148
e 30 149
e 30 150
e 30 151
e 30 152
e 31 62
e 31 64
e 31 71
e 31 73
e 31 92
e 31 95
e 31 97
e 31 104
e 31 106
e 31 155
e 31 157
e 31 164
e 31 166
e 31 185
e 32 61
e 32 63
e 32 70
e 32 72
e 32 92
e 32 94
e 32 96
e 32 103
e 32 105
e 32 154
e 32 156
e 32 163
e 32 165
e 32 185
e 33 62
e 33 66
e 33 68
e 33 71
e 33 75
e 33 77
e 33 92
e 33 95
e 33 99
e 33 101
e 33 104
e 33 108
e 33 110
e 33 155
e 33 159
e 33 161
e 33 164
e 33 168
e 33 170
e 33 185
e 34 61
e 34 65
e 34 68
e 34 70
e 34 74
e 34 77
e 34 92
e 34 94
e 34 98
e 34 101
e 34 103
e 34 107
e 34 110
e 34 154
e 34 158
e 34 161
e 34 163
e 34 167
e 34 170
e 34 185
e 35 64
e 35 67
e 35 69
e 35 73
e 35 76
e 35 78
e 35 92
e 35 97
e 35 100
e 35 102
e 35 106
e 35 109
e 35 111
e 35 157
e 35 160
e 35 162
e 35 166
e 35 169
e 35 171
e 35 185
e 36 63
e 36 67
e 36 69
e 36 72
e 36 76
e 36 78
e 36 92
e 36 96
e 36 100
e 36 102
e 36 105
e 36 109
e 36 111
e 36 156
e 36 160
e 36 162
e 36 165
e 36 169
e 36 171
e 36 185
e 37 65
e 37 66
e 37 68
e 37 69
e 37 74
e 37 75
e 37 77
e 37 78
e 37 92
e 37 98
e 37 99
e 37 101
e 37 102
e 37 107
e 37 108
e 37 110
e 37 111
e 37 158
e 37 159
e 37 161
e 37 162
e 37 167
e 37 168
e 37 170
e 37 171
e 37 185
e 38 63
e 38 64
e 38 67
e 38 69
e 38 72
e 38 73
e 38 76
e 38 78
e 38 92
e 38 96
e 38 97
e 38 100
e 38 102
e 38 105
e 38 106
e 38 109
e 38 111
e 38 156
e 38 157
e 38 160
e 38 162
e 38 165
e 38 166
e 38 169
e 38 171
e 38 185
e 39 65
e 39 66
e 39 67
e 39 68
e 39 74
e 39 75
e 39 76
e 39 77
e 39 92
e 39 98
e 39 99
e 39 100
e 39 101
e 39 107
e 39 108
e 39 109
e 39 110
e 39 158
e 39 159
e 39 160
e 39 161
e 39 167
e 39 168
e 39 169
e 39 170
e 39 185
e 40 62
e 40 64
e 40 80
e 40 82
e 40 89
e 40 92
e 40 95
e 40 97
e 40 113
e 40 115
e 40 122
e 40 155
e 40 157
e 40 173
e 40 175
e 40 182
e 40 185
e 41 61
e 41 63
e 41 79
e 41 81
e 41 89
e 41 92
e 41 94
e 41 96
e 41 112
e 41 114
e 41 122
e 41 154
e 41 156
e 41 172
e 41 174
e 41 182
e 41 185
e 42 62
e 42 66
e 42 68
e 42 80
e 42 84
e 42 86
e 42 89
e 42 92
e 42 95
e 42 99
e 42 101
e 42 113
e 42 117
e 42 119
e 42 122
e 42 155
e 42 159
e 42 161
e 42 173
e 42 177
e 42 179
e 42 182
e 42 185
e 43 61
e 43 65
e 43 68
e 43 79
e 43 83
e 43 86
e 43 89
e 43 92
e 43 94
e 43 98
e 43 101
e 43 112
e 43 116
e 43 119
e 43 122
e 43 154
e 43 158
e 43 161
e 43 172
e 43 176
e 43 179
e 43 182
e 43 185
e 44 64
e 44 67
e 44 69
e 44 82
e 44 85
e 44 87
e 44 89
e 44 92
e 44 97
e 44 100
e 44 102
e 44 115
e 44 118
e 44 120
e 44 122
e 44 157
e 44 160
e 44 162
e 44 175
e 44 178
e 44 180
e 44 182
e 44 185
e 45 63
e 45 67
e 45 69
e 45 81
e 45 85
e 45 87
e 45 89
e 45 92
e 45 96
e 45 100
e 45 102
e 45 114
e 45 118
e 45 120
e 45 122
e 45 156
e 45 160
e 45 162
e 45 174
e 45 178
e 45 180
e 45 182
e 45 185
e 46 65
e 46 66
e 46 68
e 46 69
e 46 83
e 46 84
e 46 86
e 46 87
e 46 89
e 46 92
e 46 98
e 46 99
e 46 101
e 46 102
e 46 116
e 46 117
e 46 119
e 46 120
e 46 122
e 46 158
e 46 159
e 46 161
e 46 162
e 46 176
e 46 177
e 46 179
e 46 180
e 46 182
e 46 185
e 47 63
e 47 64
e 47 67
e 47 69
e 47 81
e 47 82
e 47 85
e 47 87
e 47 89
e 47 92
e 47 96
e 47 97
e 47 100
e 47 102
e 47 114
e 47 115
e 47 118
e 47 120
e 47 122
e 47 156
e 47 157
e 47 160
e 47 162
e 47 174
e 47 175
e 47 178
e 47 180
e 47 182
e 47 185
e 48 65
e 48 66
e 48 67
e 48 68
e 48 83
e 48 84
e 48 85
e 48 86
e 48 89
e 48 92
e 48 98
e 48 99
e 48 100
e 48 101
e 48 116
e 48 117
e 48 118
e 48 119
e 48 122
e 48 158
e 48 159
e 48 160
e 48 161
e 48 176
e 48 177
e 48 178
e 48 179
e 48 182
e 48 185
e 49 71
e 49 73
e 49 88
e 49 90
e 49 92
e 49 104
e 49 106
e 49 121
e 49 123
e 49 164
e 49 166
e 49 181
e 49 183
e 49 185
e 50 70
e 50 72
e 50 88
e 50 90
e 50 92
e 50 103
e 50 105
e 50 121
e 50 123
e 50 163
e 50 165
e 50 181
e 50 183
e 50 185
e 51 71
e 51 75
e 51 77
e 51 88
e 51 90
e 51 92
e 51 104
e 51 108
e 51 110
e 51 121
e 51 123
e 51 164
e 51 168
e 51 170
e 51 181
e 51 183
e 51 185
e 52 70
e 52 74
e 52 77
e 52 88
e 52 90
e 52 92
e 52 103
e 52 107
e 52 110
e 52 121
e 52 123
e 52 163
e 52 167
e 52 170
e 52 181
e 52 183
e 52 185
e 53 73
e 53 76
e 53 78
e 53 88
e 53 90
e 53 92
e 53 106
e 53 109
e 53 111
e 53 121
e 53 123
e 53 166
e 53 169
e 53 171
e 53 181
e 53 183
e 53 185
e 54 72
e 54 76
e 54 78
e 54 88
e 54 90
e 54 92
e 54 105
e 54 109
e 54 111
e 54 121
e 54 123
e 54 165
e 54 169
e 54 171
e 54 181
e 54 183
e 54 185
e 55 74
e 55 75
e 55 77
e 55 78
e 55 88
e 55 90
e 55 92
e 55 107
e 55 108
e 55 110
e 55 111
e 55 121
e 55 123
e 55 167
e 55 168
e 55 170
e 55 171
e 55 181
e 55 183
e 55 185
e 56 72
e 56 73
e 56 76
e 56 78
e 56 88
e 56 90
e 56 92
e 56 105
e 56 106
e 56 109
e 56 111
e 56 121
e 56 123
e 56 165
e 56 166
e 56 169
e 56 171
e 56 181
e 56 183
e 56 185
e 57 74
e 57 75
e 57 76
e 57 77
e 57 88
e 57 90
e 57 92
e 57 107
e 57 108
e 57 109
e 57 110
e 57 121
e 57 123
e 57 167
e 57 168
e 57 169
e 57 170
e 57 181
e 57 183
e 57 185
e 58 79
e 58 80
e 58 81
e 58 82
e 58 83
e 58 84
e 58 85
e 58 86
e 58 87
e 58 89
e 58 90
e 58 92
e 58 112
e 58 113
e 58 114
e 58 115
e 58 116
e 58 117
e 58 118
e 58 119
e 58 120
e 58 122
e 58 123
e 58 172
e 58 173
e 58 174
e 58 175
e 58 176
e 58 177
e 58 178
e 58 179
e 58 180
e 58 182
e 58 183
e 58 185
e 59 70
e 59 71
e 59 72
e 59 73
e 59 74
e 59 75
e 59 76
e 59 77
e 59 78
e 59 88
e 59 90
e 59 92
e 59 103
e 59 104
e 59 105
e 59 106
e 59 107
e 59 108
e 59 109
e 59 110
e 59 111
e 59 121
e 59 123
e 59 163
e 59 164
e 59 165
e 59 166
e 59 167
e 59 168
e 59 169
e 59 170
e 59 171
e 59 181
e 59 183
e 59 185
e 60 79
e 60 80
e 60 81
e 60 82
e 60 83
e 60 84
e 60 85
e 60 86
e 60 87
e 60 88
e 60 89
e 60 92
e 60 112
e 60 113
e 60 114
e 60 115
e 60 116
e 60 117
e 60 118
e 60 119
e 60 120
e 60 121
e 60 122
e 60 172
e 60 173
e 60 174
e 60 175
e 60 176
e 60 177
e 60 178
e 60 179
e 60 180
e 60 181
e 60 182
e 60 185
e 61 91
e 61 93
e 61 125
e 61 127
e 61 134
e 61 136
e 61 184
e 61 186
e 62 91
e 62 93
e 62 124
e 62 126
e 62 133
e 62 135
e 62 184
e 62 186
e 63 91
e 63 93
e 63 125
e 63 129
e 63 131
e 63 134
e 63 138
e 63 140
e 63 184
e 63 186
e 64 91
e 64 93
e 64 124
e 64 128
e 64 131
e 64 133
e 64 137
e 64 140
e 64 184
e 64 186
e 65 91
e 65 93
e 65 127
e 65 130
e 65 132
e 65 136
e 65 139
e 65 141
e 65 184
e 65 186
e 66 91
e 66 93
e 66 126
e 66 130
e 66 132
e 66 135
e 66 139
e 66 141
e 66 184
e 66 186
e 67 91
e 67 93
e 67 128
e 67 129
e 67 131
e 67 132
e 67 137
e 67 138
e 67 140
e 67 141
e 67 184
e 67 186
e 68 91
e 68 93
e 68 126
e 68 127
e 68 130
e 68 132
e 68 135
e 68 136
e 68 139
e 68 141
e 68 184
e 68 186
e 69 91
e 69 93
e 69 128
e 69 129
e 69 130
e 69 131
e 69 137
e 69 138
e 69 139
e 69 140
e 69 184
e 69 186
e 70 91
e 70 93
e 70 125
e 70 127
e 70 143
e 70 145
e 70 152
e 70 184
e 70 186
e 71 91
e 71 93
e 71 124
e 71 126
e 71 142
e 71 144
e 71 152
e 71 184
e 71 186
e 72 91
e 72 93
e 72 125
e 72 129
e 72 131
e 72 143
e 72 147
e 72 149
e 72 152
e 72 184
e 72 186
e 73 91
e 73 93
e 73 124
e 73 128
e 73 131
e 73 142
e 73 146
e 73 149
e 73 152
e 73 184
e 73 186
e 74 91
e 74 93
e 74 127
e 74 130
e 74 132
e 74 145
e 74 148
e 74 150
e 74 152
e 74 184
e 74 186
e 75 91
e 75 93
e 75 126
e 75 130
e 75 132
e 75 144
e 75 148
e 75 150
e 75 152
e 75 184
e 75 186
e 76 91
e 76 93
e 76 128
e 76 129
e 76 131
e 76 132
e 76 146
e 76 147
e 76 149
e 76 150
e 76 152
e 76 184
e 76 186
e 77 91
e 77 93
e 77 126
e 77 127
e 77 130
e 77 132
e 77 144
e 77 145
e 77 148
e 77 150
e 77 152
e 77 184
e 77 186
e 78 91
e 78 93
e 78 128
e 78 129
e 78 130
e 78 131
e 78 146
e 78 147
e 78 148
e 78 149
e 78 152
e 78 184
e 78 186
e 79 91
e 79 93
e 79 134
e 79 136
e 79 151
e 79 153
e 79 184
e 79 186
e 80 91
e 80 93
e 80 133
e 80 135
e 80 151
e 80 153
e 80 184
e 80 186
e 81 91
e 81 93
e 81 134
e 81 138
e 81 140
e 81 151
e 81 153
e 81 184
e 81 186
e 82 91
e 82 93
e 82 133
e 82 137
e 82 140
e 82 151
e 82 153
e 82 184
e 82 186
e 83 91
e 83 93
e 83 136
e 83 139
e 83 141
e 83 151
e 83 153
e 83 184
e 83 186
e 84 91
e 84 93
e 84 135
e 84 139
e 84 141
e 84 151
e 84 153
e 84 184
e 84 186
e 85 91
e 85 93
e 85 137
e 85 138
e 85 140
e 85 141
e 85 151
e 85 153
e 85 184
e 85 186
e 86 91
e 86 93
e 86 135
e 86 136
e 86 139
e 86 141
e 86 151
e 86 153
e 86 184
e 86 186
e 87 91
e 87 93
e 87 137
e 87 138
e 87 139
e 87 140
e 87 151
e 87 153
e 87 184
e 87 186
e 88 91
e 88 93
e 88 142
e 88 143
e 88 144
e 88 145
e 88 146
e 88 147
e 88 148
e 88 149
e 88 150
e 88 152
e 88 153
e 88 184
e 88 186
e 89 91
e 89 93
e 89 133
e 89 134
e 89 135
e 89 136
e 89 137
e 89 138
e 89 139
e 89 140
e 89 141
e 89 151
e 89 153
e 89 184
e 89 186
e 90 91
e 90 93
e 90 142
e 90 143
e 90 144
e 90 145
e 90 146
e 90 147
e 90 148
e 90 149
e 90 150
e 90 151
e 90 152
e 90 184
e 90 186
e 91 92
e 91 93
e 91 154
e 91 155
e 91 156
e 91 157
e 91 158
e 91 159
e 91 160
e 91 161
e 91 162
e 91 163
e 91 164
e 91 165
e 91 166
e 91 167
e 91 168
e 91 169
e 91 170
e 91 171
e 91 172
e 91 173
e 91 174
e 91 175
e 91 176
e 91 177
e 91 178
e 91 179
e 91 180
e 91 181
e 91 182
e 91 183
e 91 185
e 91 186
e 92 93
e 92 124
e 92 125
e 92 126
e 92 127
e 92 128
e 92 129
e 92 130
e 92 131
e 92 132
e 92 133
e 92 134
e 92 135
e 92 136
e 92 137
e 92 138
e 92 139
e 92 140
e 92 141
e 92 142
e 92 143
e 92 144
e 92 145
e 92 146
e 92 147
e 92 148
e 92 149
e 92 150
e 92 151
e 92 152
e 92 153
e 92 184
e 92 186
e 93 154
e 93 155
e 93 156
e 93 157
e 93 158
e 93 159
e 93 160
e 93 161
e 93 162
e 93 163
e 93 164
e 93 165
e 93 166
e 93 167
e 93 168
e 93 169
e 93 170
e 93 171
e 93 172
e 93 173
e 93 174
e 93 175
e 93 176
e 93 177
e 93 178
e 93 179
e 93 180
e 93 181
e 93 182
e 93 183
e 93 184
e 93 185
e 94 188
e 94 190
e 94 197
e 94 199
e 94 218
e 94 220
e 94 227
e 94 229
e 94 281
e 95 187
e 95 189
e 95 196
e 95 198
e 95 217
e 95 219
e 95 226
e 95 228
e 95 281
e 96 188
e 96 192
e 96 194
e 96 197
e 96 201
e 96 203
e 96 218
e 96 222
e 96 224
e 96 227
e 96 231
e 96 233
e 96 281
e 97 187
e 97 191
e 97 194
e 97 196
e 97 200
e 97 203
e 97 217
e 97 221
e 97 224
e 97 226
e 97 230
e 97 233
e 97 281
e 98 190
e 98 193
e 98 195
e 98 199
e 98 202
e 98 204
e 98 220
e 98 223
e 98 225
e 98 229
e 98 232
e 98 234
e 98 281
e 99 189
e 99 193
e 99 195
e 99 198
e 99 202
e 99 204
e 99 219
e 99 223
e 99 225
e 99 228
e 99 232
e 99 234
e 99 281
e 100 191
e 100 192
e 100 194
e 100 195
e 100 200
e 100 201
e 100 203
e 100 204
e 100 221
e 100 222
e 100 224
e 100 225
e 100 230
e 100 231
e 100 233
e 100 234
e 100 281
e 101 189
e 101 190
e 101 193
e 101 195
e 101 198
e 101 199
e 101 202
e 101 204
e 101 219
e 101 220
e 101 223
e 101 225
e 101 228
e 101 229
e 101 232
e 101 234
e 101 281
e 102 191
e 102 192
e 102 193
e 102 194
e 102 200
e 102 201
e 102 202
e 102 203
e 102 221
e 102 222
e 102 223
e 102 224
e 102 230
e 102 231
e 102 232
e 102 233
e 102 281
e 103 188
e 103 190
e 103 206
e 103 208
e 103 215
e 103 218
e 103 220
e 103 236
e 103 238
e 103 245
e 103 281
e 104 187
e 104 189
e 104 205
e 104 207
e 104 215
e 104 217
e 104 219
e 104 235
e 104 237
e 104 245
e 104 281
e 105 188
e 105 192
e 105 194
e 105 206
e 105 210
e 105 212
e 105 215
e 105 218
e 105 222
e 105 224
e 105 236
e 105 240
e 105 242
e 105 245
e 105 281
e 106 187
e 106 191
e 106 194
e 106 205
e 106 209
e 106 212
e 106 215
e 106 217
e 106 221
e 106 224
e 106 235
e 106 239
e 106 242
e 106 245
e 106 281
e 107 190
e 107 193
e 107 195
e 107 208
e 107 211
e 107 213
e 107 215
e 107 220
e 107 223
e 107 225
e 107 238
e 107 241
e 107 243
e 107 245
e 107 281
e 108 189
e 108 193
e 108 195
e 108 207
e 108 211
e 108 213
e 108 215
e 108 219
e 108 223
e 108 225
e 108 237
e 108 241
e 108 243
e 108 245
e 108 281
e 109 191
e 109 192
e 109 194
e 109 195
e 109 209
e 109 210
e 109 212
e 109 213
e 109 215
e 109 221
e 109 222
e 109 224
e 109 225
e 109 239
e 109 240
e 109 242
e 109 243
e 109 245
e 109 281
e 110 189
e 110 190
e 110 193
e 110 195
e 110 207
e 110 208
e 110 211
e 110 213
e 110 215
e 110 219
e 110 220
e 110 223
e 110 225
e 110 237
e 110 238
e 110 241
e 110 243
e 110 245
e 110 281
e 111 191
e 111 192
e 111 193
e 111 194
e 111 209
e 111 210
e 111 211
e 111 212
e 111 215
e 111 221
e 111 222
e 111 223
e 111 224
e 111 239
e 111 240
e 111 241
e 111 242
e 111 245
e 111 281
e 112 197
e 112 199
e 112 214
e 112 216
e 112 227
e 112 229
e 112 244
e 112 246
e 112 281
e 113 196
e 113 198
e 113 214
e 113 216
e 113 226
e 113 228
e 113 244
e 113 246
e 113 281
e 114 197
e 114 201
e 114 203
e 114 214
e 114 216
e 114 227
e 114 231
e 114 233
e 114 244
e 114 246
e 114 281
e 115 196
e 115 200
e 115 203
e 115 214
e 115 216
e 115 226
e 115 230
e 115 233
e 115 244
e 115 246
e 115 281
e 116 199
e 116 202
e 116 204
e 116 214
e 116 216
e 116 229
e 116 232
e 116 234
e 116 244
e 116 246
e 116 281
e 117 198
e 117 202
e 117 204
e 117 214
e 117 216
e 117 228
e 117 232
e 117 234
e 117 244
e 117 246
e 117 281
e 118 200
e 118 201
e 118 203
e 118 204
e 118 214
e 118 216
e 118 230
e 118 231
e 118 233
e 118 234
e 118 244
e 118 246
e 118 281
e 119 198
e 119 199
e 119 202
e 119 204
e 119 214
e 119 216
e 119 228
e 119 229
e 119 232
e 119 234
e 119 244
e 119 246
e 119 281
e 120 200
e 120 201
e 120 202
e 120 203
e 120 214
e 120 216
e 120 230
e 120 231
e 120 232
e 120 233
e 120 244
e 120 246
e 120 281
e 121 205
e 121 206
e 121 207
e 121 208
e 121 209
e 121 210
e 121 211
e 121 212
e 121 213
e 121 215
e 121 216
e 121 235
e 121 236
e 121 237
e 121 238
e 121 239
e 121 240
e 121 241
e 121 242
e 121 243
e 121 245
e 121 246
e 121 281
e 122 196
e 122 197
e 122 198
e 122 199
e 122 200
e 122 201
e 122 202
e 122 203
e 122 204
e 122 214
e 122 216
e 122 226
e 122 227
e 122 228
e 122 229
e 122 230
e 122 231
e 122 232
e 122 233
e 122 234
e 122 244
e 122 246
e 122 281
e 123 205
e 123 206
e 123 207
e 123 208
e 123 209
e 123 210
e 123 211
e 123 212
e 123 213
e 123 214
e 123 215
e 123 235
e 123 236
e 123 237
e 123 238
e 123 239
e 123 240
e 123 241
e 123 242
e 123 243
e 123 244
e 123 245
e 123 281
e 124 188
e 124 190
e 124 197
e 124 199
e 124 248
e 124 250
e 124 257
e 124 259
e 124 278
e 124 281
e 125 187
e 125 189
e 125 196
e 125 198
e 125 247
e 125 249
e 125 256
e 125 258
e 125 278
e 125 281
e 126 188
e 126 192
e 126 194
e 126 197
e 126 201
e 126 203
e 126 248
e 126 252
e 126 254
e 126 257
e 126 261
e 126 263
e 126 278
e 126 281
e 127 187
e 127 191
e 127 194
e 127 196
e 127 200
e 127 203
e 127 247
e 127 251
e 127 254
e 127 256
e 127 260
e 127 263
e 127 278
e 127 281
e 128 190
e 128 193
e 128 195
e 128 199
e 128 202
e 128 204
e 128 250
e 128 253
e 128 255
e 128 259
e 128 262
e 128 264
e 128 278
e 128 281
e 129 189
e 129 193
e 129 195
e 129 198
e 129 202
e 129 204
e 129 249
e 129 253
e 129 255
e 129 258
e 129 262
e 129 264
e 129 278
e 129 281
e 130 191
e 130 192
e 130 194
e 130 195
e 130 200
e 130 201
e 130 203
e 130 204
e 130 251
e 130 252
e 130 254
e 130 255
e 130 260
e 130 261
e 130 263
e 130 264
e 130 278
e 130 281
e 131 189
e 131 190
e 131 193
e 131 195
e 131 198
e 131 199
e 131 202
e 131 204
e 131 249
e 131 250
e 131 253
e 131 255
e 131 258
e 131 259
e 131 262
e 131 264
e 131 278
e 131 281
e 132 191
e 132 192
e 132 193
e 132 194
e 132 200
e 132 201
e 132 202
e 132 203
e 132 251
e 132 252
e 132 253
e 132 254
e 132 260
e 132 261
e 132 262
e 132 263
e 132 278
e 132 281
e 133 188
e 133 190
e 133 206
e 133 208
e 133 215
e 133 248
e 133 250
e 133 266
e 133 268
e 133 275
e 133 278
e 133 281
e 134 187
e 134 189
e 134 205
e 134 207
e 134 215
e 134 247
e 134 249
e 134 265
e 134 267
e 134 275
e 134 278
e 134 281
e 135 188
e 135 192
e 135 194
e 135 206
e 135 210
e 135 212
e 135 215
e 135 248
e 135 252
e 135 254
e 135 266
e 135 270
e 135 272
e 135 275
e 135 278
e 135 281
e 136 187
e 136 191
e 136 194
e 136 205
e 136 209
e 136 212
e 136 215
e 136 247
e 136 251
e 136 254
e 136 265
e 136 269
e 136 272
e 136 275
e 136 278
e 136 281
e 137 190
e 137 193
e 137 195
e 137 208
e 137 211
e 137 213
e 137 215
e 137 250
e 137 253
e 137 255
e 137 268
e 137 271
e 137 273
e 137 275
e 137 278
e 137 281
e 138 189
e 138 193
e 138 195
e 138 207
e 138 211
e 138 213
e 138 215
e 138 249
e 138 253
e 138 255
e 138 267
e 138 271
e 138 273
e 138 275
e 138 278
e 138 281
e 139 191
e 139 192
e 139 194
e 139 195
e 139 209
e 139 210
e 139 212
e 139 213
e 139 215
e 139 251
e 139 252
e 139 254
e 139 255
e 139 269
e 139 270
e 139 272
e 139 273
e 139 275
e 139 278
e 139 281
e 140 189
e 140 190
e 140 193
e 140 195
e 140 207
e 140 208
e 140 211
e 140 213
e 140 215
e 140 249
e 140 250
e 140 253
e 140 255
e 140 267
e 140 268
e 140 271
e 140 273
e 140 275
e 140 278
e 140 281
e 141 191
e 141 192
e 141 193
e 141 194
e 141 209
e 141 210
e 141 211
e 141 212
e 141 215
e 141 251
e 141 252
e 141 253
e 141 254
e 141 269
e 141 270
e 141 271
e 141 272
e 141 275
e 141 278
e 141 281
e 142 197
e 142 199
e 142 214
e 142 216
e 142 257
e 142 259
e 142 274
e 142 276
e 142 278
e 142 281
e 143 196
e 143 198
e 143 214
e 143 216
e 143 256
e 143 258
e 143 274
e 143 276
e 143 278
e 143 281
e 144 197
e 144 201
e 144 203
e 144 214
e 144 216
e 144 257
e 144 261
e 144 263
e 144 274
e 144 276
e 144 278
e 144 281
e 145 196
e 145 200
e 145 203
e 145 214
e 145 216
e 145 256
e 145 260
e 145 263
e 145 274
e 145 276
e 145 278
e 145 281
e 146 199
e 146 202
e 146 204
e 146 214
e 146 216
e 146 259
e 146 262
e 146 264
e 146 274
e 146 276
e 146 278
e 146 281
e 147 198
e 147 202
e 147 204
e 147 214
e 147 216
e 147 258
e 147 262
e 147 264
e 147 274
e 147 276
e 147 278
e 147 281
e 148 200
e 148 201
e 148 203
e 148 204
e 148 214
e 148 216
e 148 260
e 148 261
e 148 263
e 148 264
e 148 274
e 148 276
e 148 278
e 148 281
e 149 198
e 149 199
e 149 202
e 149 204
e 149 214
e 149 216
e 149 258
e 149 259
e 149 262
e 149 264
e 149 274
e 149 276
e 149 278
e 149 281
e 150 200
e 150 201
e 150 202
e 150 203
e 150 214
e 150 216
e 150 260
e 150 261
e 150 262
e 150 263
e 150 274
e 150 276
e 150 278
e 150 281
e 151 205
e 151 206
e 151 207
e 151 208
e 151 209
e 151 210
e 151 211
e 151 212
e 151 213
e 151 215
e 151 216
e 151 265
e 151 266
e 151 267
e 151 268
e 151 269
e 151 270
e 151 271
e 151 272
e 151 273
e 151 275
e 151 276
e 151 278
e 151 281
e 152 196
e 152 197
e 152 198
e 152 199
e 152 200
e 152 201
e 152 202
e 152 203
e 152 204
e 152 214
e 152 216
e 152 256
e 152 257
e 152 258
e 152 259
e 152 260
e 152 261
e 152 262
e 152 263
e 152 264
e 152 274
e 152 276
e 152 278
e 152 281
e 153 205
e 153 206
e 153 207
e 153 208
e 153 209
e 153 210
e 153 211
e 153 212
e 153 213
e 153 214
e 153 215
e 153 265
e 153 266
e 153 267
e 153 268
e 153 269
e 153 270
e 153 271
e 153 272
e 153 273
e 153 274
e 153 275
e 153 278
e 153 281
e 154 218
e 154 220
e 154 227
e 154 229
e 154 277
e 154 279
e 154 281
e 155 217
e 155 219
e 155 226
e 155 228
e 155 277
e 155 279
e 155 281
e 156 218
e 156 222
e 156 224
e 156 227
e 156 231
e 156 233
e 156 277
e 156 279
e 156 281
e 157 217
e 157 221
e 157 224
e 157 226
e 157 230
e 157 233
e 157 277
e 157 279
e 157 281
e 158 220
e 158 223
e 158 225
e 158 229
e 158 232
e 158 234
e 158 277
e 158 279
e 158 281
e 159 219
e 159 223
e 159 225
e 159 228
e 159 232
e 159 234
e 159 277
e 159 279
e 159 281
e 160 221
e 160 222
e 160 224
e 160 225
e 160 230
e 160 231
e 160 233
e 160 234
e 160 277
e 160 279
e 160 281
e 161 219
e 161 220
e 161 223
e 161 225
e 161 228
e 161 229
e 161 232
e 161 234
e 161 277
e 161 279
e 161 281
e 162 221
e 162 222
e 162 223
e 162 224
e 162 230
e 162 231
e 162 232
e 162 233
e 162 277
e 162 279
e 162 281
e 163 218
e 163 220
e 163 236
e 163 238
e 163 245
e 163 277
e 163 279
e 163 281
e 164 217
e 164 219
e 164 235
e 164 237
e 164 245
e 164 277
e 164 279
e 164 281
e 165 218
e 165 222
e 165 224
e 165 236
e 165 240
e 165 242
e 165 245
e 165 277
e 165 279
e 165 281
e 166 217
e 166 221
e 166 224
e 166 235
e 166 239
e 166 242
e 166 245
e 166 277
e 166 279
e 166 281
e 167 220
e 167 223
e 167 225
e 167 238
e 167 241
e 167 243
e 167 245
e 167 277
e 167 279
e 167 281
e 168 219
e 168 223
e 168 225
e 168 237
e 168 241
e 168 243
e 168 245
e 168 277
e 168 279
e 168 281
e 169 221
e 169 222
e 169 224
e 169 225
e 169 239
e 169 240
e 169 242
e 169 243
e 169 245
e 169 277
e 169 279
e 169 281
e 170 219
e 170 220
e 170 223
e 170 225
e 170 237
e 170 238
e 170 241
e 170 243
e 170 245
e 170 277
e 170 279
e 170 281
e 171 221
e 171 222
e 171 223
e 171 224
e 171 239
e 171 240
e 171 241
e 171 242
e 171 245
e 171 277
e 171 279
e 171 281
e 172 227
e 172 229
e 172 244
e 172 246
e 172 277
e 172 279
e 172 281
e 173 226
e 173 228
e 173 244
e 173 246
e 173 277
e 173 279
e 173 281
e 174 227
e 174 231
e 174 233
e 174 244
e 174 246
e 174 277
e 174 279
e 174 281
e 175 226
e 175 230
e 175 233
e 175 244
e 175 246
e 175 277
e 175 279
e 175 281
e 176 229
e 176 232
e 176 234
e 176 244
e 176 246
e 176 277
e 176 279
e 176 281
e 177 228
e 177 232
e 177 234
e 177 244
e 177 246
e 177 277
e 177 279
e 177 281
e 178 230
e 178 231
e 178 233
e 178 234
e 178 244
e 178 246
e 178 277
e 178 279
e 178 281
e 179 228
e 179 229
e 179 232
e 179 234
e 179 244
e 179 246
e 179 277
e 179 279
e 179 281
e 180 230
e 180 231
e 180 232
e 180 233
e 180 244
e 180 246
e 180 277
e 180 279
e 180 281
e 181 235
e 181 236
e 181 237
e 181 238
e 181 239
e 181 240
e 181 241
e 181 242
e 181 243
e 181 245
e 181 246
e 181 277
e 181 279
e 181 281
e 182 226
e 182 227
e 182 228
e 182 229
e 182 230
e 182 231
e 182 232
e 182 233
e 182 234
e 182 244
e 182 246
e 182 277
e 182 279
e 182 281
e 183 235
e 183 236
e 183 237
e 183 238
e 183 239
e 183 240
e 183 241
e 183 242
e 183 243
e 183 244
e 183 245
e 183 277
e 183 279
e 183 281
e 184 247
e 184 248
e 184 249
e 184 250
e 184 251
e 184 252
e 184 253
e 184 254
e 184 255
e 184 256
e 184 257
e 184 258
e 184 259
e 184 260
e 184 261
e 184 262
e 184 263
e 184 264
e 184 265
e 184 266
e 184 267
e 184 268
e 184 269
e 184 270
e 184 271
e 184 272
e 184 273
e 184 274
e 184 275
e 184 276
e 184 278
e 184 279
e 184 281
e 185 217
e 185 218
e 185 219
e 185 220
e 185 221
e 185 222
e 185 223
e 185 224
e 185 225
e 185 226
e 185 227
e 185 228
e 185 229
e 185 230
e 185 231
e 185 232
e 185 233
e 185 234
e 185 235
e 185 236
e 185 237
e 185 238
e 185 239
e 185 240
e 185 241
e 185 242
e 185 243
e 185 244
e 185 245
e 185 246
e 185 277
e 185 279
e 185 281
e 186 247
e 186 248
e 186 249
e 186 250
e 186 251
e 186 252
e 186 253
e 186 254
e 186 255
e 186 256
e 186 257
e 186 258
e 186 259
e 186 260
e 186 261
e 186 262
e 186 263
e 186 264
e 186 265
e 186 266
e 186 267
e 186 268
e 186 269
e 186 270
e 186 271
e 186 272
e 186 273
e 186 274
e 186 275
e 186 276
e 186 277
e 186 278
e 186 281
e 187 280
e 187 282
e 188 280
e 188 282
e 189 280
e 189 282
e 190 280
e 190 282
e 191 280
e 191 282
e 192 280
e 192 282
e 193 280
e 193 282
e 194 280
e 194 282
e 195 280
e 195 282
e 196 280
e 196 282
e 197 280
e 197 282
e 198 280
e 198 282
e 199 280
e 199 282
e 200 280
e 200 282
e 201 280
e 201 282
e 202 280
e 202 282
e 203 280
e 203 282
e 204 280
e 204 282
e 205 280
e 205 282
e 206 280
e 206 282
e 207 280
e 207 282
e 208 280
e 208 282
e 209 280
e 209 282
e 210 280
e 210 282
e 211 280
e 211 282
e 212 280
e 212 282
e 213 280
e 213 282
e 214 280
e 214 282
e 215 280
e 215 282
e 216 280
e 216 282
e 217 280
e 217 282
e 218 280
e 218 282
e 219 280
e 219 282
e 220 280
e 220 282
e 221 280
e 221 282
e 222 280
e 222 282
e 223 280
e 223 282
e 224 280
e 224 282
e 225 280
e 225 282
e 226 280
e 226 282
e 227 280
e 227 282
e 228 280
e 228 282
e 229 280
e 229 282
e 230 280
e 230 282
e 231 280
e 231 282
e 232 280
e 232 282
e 233 280
e 233 282
e 234 280
e 234 282
e 235 280
e 235 282
e 236 280
e 236 282
e 237 280
e 237 282
e 238 280
e 238 282
e 239 280
e 239 282
e 240 280
e 240 282
e 241 280
e 241 282
e 242 280
e 242 282
e 243 280
e 243 282
e 244 280
e 244 282
e 245 280
e 245 282
e 246 280
e 246 282
e 247 280
e 247 282
e 248 280
e 248 282
e 249 280
e 249 282
e 250 280
e 250 282
e 251 280
e 251 282
e 252 280
e 252 282
e 253 280
e 253 282
e 254 280
e 254 282
e 255 280
e 255 282
e 256 280
e 256 282
e 257 280
e 257 282
e 258 280
e 258 282
e 259 280
e 259 282
e 260 280
e 260 282
e 261 280
e 261 282
e 262 280
e 262 282
e 263 280
e 263 282
e 264 280
e 264 282
e 265 280
e 265 282
e 266 280
e 266 282
e 267 280
e 267 282
e 268 280
e 268 282
e 269 280
e 269 282
e 270 280
e 270 282
e 271 280
e 271 282
e 272 280
e 272 282
e 273 280
e 273 282
e 274 280
e 274 282
e 275 280
e 275 282
e 276 280
e 276 282
e 277 280
e 277 282
e 278 280
e 278 282
e 279 280
e 279 282
e 280 281
e 280 282
e 281 282
